
7 6 21 24 2 6 21 28 24 28 4 28 23 3 28 7 3 8 21 24 11 21 2 24 23 11 24 14 4 2 6 4 4 21 28 6 8 8 24 21 7 8 6 4 8 4 3 21 14 14 24 21 2 21 8 6 11 8 7 7 4 2 7 8 3 11 23 14 28 11 7 6 6 8 23 23 8 23 8 24 23 2 8 7 4 23 6 2 24 7 28 6 7 11 2 3 11 6 2 28 28 21 11 7 4 24 4 24 21 3 14 4 24 6 11 8 28 7 14 8 14 11 28 6 4 21 2 11 4 28 28 24 11 8 23 8 3 3 28 14 11 24 11 11 11 2 24 21 24 7 24 28 23 28 8 11 2 21 3 3 3 24 23 2 23 28 23 4 3 21 23 8 28 14 4 2 24 14 4 14 2 21 2 6 11 8 28 23 28 21 2 21 6 4 7 6 7 21 23 6 
